Speck32/MILP/sol/6Round_868.sol
# Objective value = 16.0
pro0Rd0 8.604228440844963e-16
pro1Rd0 -8.881784197001252e-16
pro2Rd0 -0.0
pro3Rd0 1.0000000000000027
pro4Rd0 -0.0
pro5Rd0 1.0
pro6Rd0 0.0
pro7Rd0 1.0
pro8Rd0 0.0
pro9Rd0 0.0
pro10Rd0 0.0
pro11Rd0 0.0
pro12Rd0 -0.0
pro13Rd0 -2.0816681711721685e-16
pro14Rd0 1.0
pro0Rd1 -1.2212453270876722e-15
pro1Rd1 -1.2212453270876722e-15
pro2Rd1 -4.440892098500626e-16
pro3Rd1 0.0
pro4Rd1 -4.163336342344337e-16
pro5Rd1 0.0
pro6Rd1 0.0
pro7Rd1 8.604228440844963e-16
pro8Rd1 -0.0
pro9Rd1 3.7470027081099033e-16
pro10Rd1 1.0
pro11Rd1 -6.661338147750939e-16
pro12Rd1 1.0
pro13Rd1 -0.0
pro14Rd1 -0.0
pro0Rd2 -1.5543122344752192e-15
pro1Rd2 1.0
pro2Rd2 0.0
pro3Rd2 -0.0
pro4Rd2 0.0
pro5Rd2 0.0
pro6Rd2 -0.0
pro7Rd2 -8.881784197001252e-16
pro8Rd2 0.0
pro9Rd2 1.2212453270876722e-15
pro10Rd2 0.0
pro11Rd2 -0.0
pro12Rd2 -0.0
pro13Rd2 -1.7763568394002505e-15
pro14Rd2 8.604228440844963e-16
pro0Rd3 4.85722573273506e-17
pro1Rd3 1.0
pro2Rd3 0.0
pro3Rd3 0.0
pro4Rd3 2.498001805406602e-16
pro5Rd3 -0.0
pro6Rd3 -0.0
pro7Rd3 0.0
pro8Rd3 1.0
pro9Rd3 0.0
pro10Rd3 -0.0
pro11Rd3 0.0
pro12Rd3 5.551115123125783e-16
pro13Rd3 5.551115123125783e-16
pro14Rd3 5.551115123125783e-17
pro0Rd4 -6.245004513516506e-17
pro1Rd4 1.0
pro2Rd4 1.1102230246251565e-16
pro3Rd4 -0.0
pro4Rd4 -0.0
pro5Rd4 -0.0
pro6Rd4 0.0
pro7Rd4 -4.85722573273506e-17
pro8Rd4 1.0
pro9Rd4 -0.0
pro10Rd4 -2.7755575615628914e-16
pro11Rd4 -0.0
pro12Rd4 -0.0
pro13Rd4 2.498001805406602e-16
pro14Rd4 5.551115123125783e-17
pro0Rd5 1.0
pro1Rd5 1.0000000000000007
pro2Rd5 -0.0
pro3Rd5 -0.0
pro4Rd5 -1.1102230246251565e-16
pro5Rd5 3.3306690738754696e-16
pro6Rd5 0.9999999999999998
pro7Rd5 9.159339953157541e-16
pro8Rd5 1.0000000000000004
pro9Rd5 -0.0
pro10Rd5 -0.0
pro11Rd5 -0.0
pro12Rd5 3.3306690738754696e-16
pro13Rd5 0.9999999999999987
pro14Rd5 -2.220446049250313e-16
p0 -0.0
p1 1.0
p2 0.0
p3 -0.0
p4 0.0
p5 0.0
p6 -0.0
p7 0.0
p8 1.0
p9 -0.0
p10 -0.0
p11 -8.881784197001252e-16
p12 8.604228440844963e-16
p13 1.0
p14 -4.163336342344337e-16
p15 -6.661338147750939e-16
p16 -4.163336342344337e-16
p17 0.0
p18 -1.7763568394002505e-15
p19 8.604228440844963e-16
p20 -1.2212453270876722e-15
p21 -4.163336342344337e-16
p22 1.0000000000000007
p23 -0.0
p24 1.0
p25 -0.0
p26 0.0
p27 0.0
p28 -1.1102230246251565e-15
p29 0.0
p30 -2.0816681711721685e-16
p31 1.0
p0Rd1 -0.0
p16Rd1 -1.7763568394002505e-15
temp0Rnd0 -1.7763568394002505e-15
p1Rd1 8.604228440844963e-16
p17Rd1 -0.0
temp1Rnd0 8.604228440844963e-16
p2Rd1 0.0
p18Rd1 -1.2212453270876722e-15
temp2Rnd0 -1.2212453270876722e-15
p3Rd1 8.604228440844963e-16
p19Rd1 -7.771561172376096e-16
temp3Rnd0 -1.6653345369377348e-16
p4Rd1 1.0000000000000007
p20Rd1 -0.0
temp4Rnd0 1.0000000000000007
p5Rd1 -4.163336342344337e-16
p21Rd1 -4.163336342344337e-16
temp5Rnd0 -4.163336342344337e-16
p6Rd1 1.0
p22Rd1 -0.0
temp6Rnd0 1.0
p7Rd1 0.0
p23Rd1 -0.0
temp7Rnd0 -0.0
p8Rd1 -0.0
p24Rd1 -0.0
temp8Rnd0 0.0
p9Rd1 0.0
p25Rd1 -0.0
temp9Rnd0 0.0
p10Rd1 -0.0
p26Rd1 3.7470027081099033e-16
temp10Rnd0 -2.498001805406602e-16
p11Rd1 -0.0
p27Rd1 -0.0
temp11Rnd0 -0.0
p12Rd1 -7.771561172376096e-16
p28Rd1 -8.881784197001252e-16
temp12Rnd0 -8.881784197001252e-16
p13Rd1 0.0
p29Rd1 1.0
temp13Rnd0 1.0
p14Rd1 -4.163336342344337e-16
p30Rd1 -0.0
temp14Rnd0 -4.163336342344337e-16
p15Rd1 0.0
p31Rd1 -0.0
temp15Rnd0 0.0
temp0 1.0
p0Rd2 -0.0
p16Rd2 -6.661338147750939e-16
temp0Rnd1 -5.551115123125783e-16
p1Rd2 -1.2212453270876722e-15
p17Rd2 -1.5543122344752192e-15
temp1Rnd1 -2.4424906541753444e-15
p2Rd2 0.0
p18Rd2 -0.0
temp2Rnd1 -0.0
p3Rd2 -4.163336342344337e-16
p19Rd2 -0.0
temp3Rnd1 -4.163336342344337e-16
p4Rd2 -0.0
p20Rd2 0.0
temp4Rnd1 -0.0
p5Rd2 -0.0
p21Rd2 0.0
temp5Rnd1 -0.0
p6Rd2 -0.0
p22Rd2 0.0
temp6Rnd1 0.0
p7Rd2 0.0
p23Rd2 -0.0
temp7Rnd1 -0.0
p8Rd2 8.604228440844963e-16
p24Rd2 -8.881784197001252e-16
temp8Rnd1 3.0531133177191805e-16
p9Rd2 0.0
p25Rd2 -0.0
temp9Rnd1 -0.0
p10Rd2 7.494005416219807e-16
p26Rd2 1.2212453270876722e-15
temp10Rnd1 5.273559366969494e-16
p11Rd2 1.0
p27Rd2 0.0
temp11Rnd1 1.0
p12Rd2 -0.0
p28Rd2 -0.0
temp12Rnd1 0.0
p13Rd2 -0.0
p29Rd2 0.0
temp13Rnd1 0.0
p14Rd2 0.0
p30Rd2 -1.7763568394002505e-15
temp14Rnd1 -1.7763568394002505e-15
p15Rd2 0.0
p31Rd2 -0.0
temp15Rnd1 0.0
temp1 0.0
p0Rd3 0.0
p16Rd3 -0.0
temp0Rnd2 -0.0
p1Rd3 -0.0
p17Rd3 0.0
temp1Rnd2 0.0
p2Rd3 1.0
p18Rd3 1.0
temp2Rnd2 1.0
p3Rd3 -0.0
p19Rd3 0.0
temp3Rnd2 -0.0
p4Rd3 0.0
p20Rd3 -0.0
temp4Rnd2 0.0
p5Rd3 -0.0
p21Rd3 -0.0
temp5Rnd2 0.0
p6Rd3 -0.0
p22Rd3 -8.881784197001252e-16
temp6Rnd2 -8.881784197001252e-16
p7Rd3 0.0
p23Rd3 0.0
temp7Rnd2 0.0
p8Rd3 1.2212453270876722e-15
p24Rd3 -0.0
temp8Rnd2 1.2212453270876722e-15
p9Rd3 -0.0
p25Rd3 0.0
temp9Rnd2 0.0
p10Rd3 -0.0
p26Rd3 0.0
temp10Rnd2 -0.0
p11Rd3 0.0
p27Rd3 0.0
temp11Rnd2 0.0
p12Rd3 -0.0
p28Rd3 -1.7763568394002505e-15
temp12Rnd2 -1.7763568394002505e-15
p13Rd3 -0.0
p29Rd3 0.0
temp13Rnd2 0.0
p14Rd3 -4.163336342344337e-16
p30Rd3 -2.220446049250313e-16
temp14Rnd2 -6.661338147750939e-16
p15Rd3 8.604228440844963e-16
p31Rd3 -0.0
temp15Rnd2 0.0
temp2 8.604228440844963e-16
p0Rd4 4.85722573273506e-17
p16Rd4 0.9999999999999999
temp0Rnd3 1.0
p1Rd4 4.85722573273506e-17
p17Rd4 -6.245004513516506e-17
temp1Rnd3 4.85722573273506e-17
p2Rd4 1.0
p18Rd4 1.0
temp2Rnd3 1.0
p3Rd4 0.0
p19Rd4 0.0
temp3Rnd3 -0.0
p4Rd4 -0.0
p20Rd4 -8.881784197001252e-16
temp4Rnd3 -8.881784197001252e-16
p5Rd4 2.498001805406602e-16
p21Rd4 2.498001805406602e-16
temp5Rnd3 2.498001805406602e-16
p6Rd4 6.38378239159465e-16
p22Rd4 6.38378239159465e-16
temp6Rnd3 6.38378239159465e-16
p7Rd4 0.0
p23Rd4 0.0
temp7Rnd3 0.0
p8Rd4 -0.0
p24Rd4 0.0
temp8Rnd3 0.0
p9Rd4 1.0
p25Rd4 1.0
temp9Rnd3 1.0
p10Rd4 0.0
p26Rd4 -1.7763568394002505e-15
temp10Rnd3 -1.7763568394002505e-15
p11Rd4 -0.0
p27Rd4 -0.0
temp11Rnd3 -0.0
p12Rd4 -0.0
p28Rd4 1.8041124150158794e-16
temp12Rnd3 0.0
p13Rd4 5.551115123125783e-16
p29Rd4 2.220446049250313e-16
temp13Rnd3 2.220446049250313e-16
p14Rd4 2.498001805406602e-16
p30Rd4 2.498001805406602e-16
temp14Rnd3 2.498001805406602e-16
p15Rd4 5.551115123125783e-17
p31Rd4 5.551115123125783e-17
temp15Rnd3 5.551115123125783e-17
temp3 5.551115123125783e-17
p0Rd5 0.0
p16Rd5 1.0
temp0Rnd4 1.0
p1Rd5 1.249000902703301e-16
p17Rd5 1.249000902703301e-16
temp1Rnd4 1.249000902703301e-16
p2Rd5 0.9999999999999999
p18Rd5 1.0000000000000004
temp2Rnd4 0.9999999999999999
p3Rd5 1.1102230246251565e-16
p19Rd5 4.996003610813204e-16
temp3Rnd4 1.1102230246251565e-16
p4Rd5 -8.881784197001252e-16
p20Rd5 2.220446049250313e-16
temp4Rnd4 -8.326672684688674e-17
p5Rd5 2.498001805406602e-16
p21Rd5 2.498001805406602e-16
temp5Rnd4 2.498001805406602e-16
p6Rd5 4.163336342344337e-16
p22Rd5 4.163336342344337e-16
temp6Rnd4 4.163336342344337e-16
p7Rd5 0.0
p23Rd5 1.0
temp7Rnd4 1.0
p8Rd5 -4.85722573273506e-17
p24Rd5 -1.7763568394002505e-15
temp8Rnd4 -1.7763568394002505e-15
p9Rd5 0.0
p25Rd5 0.0
temp9Rnd4 0.0
p10Rd5 -1.7763568394002505e-15
p26Rd5 -2.0539125955565396e-15
temp10Rnd4 -2.0539125955565396e-15
p11Rd5 -2.7755575615628914e-16
p27Rd5 -8.881784197001252e-16
temp11Rnd4 -4.996003610813204e-16
p12Rd5 4.996003610813204e-16
p28Rd5 2.498001805406602e-16
temp12Rnd4 4.996003610813204e-16
p13Rd5 2.220446049250313e-16
p29Rd5 7.771561172376096e-16
temp13Rnd4 7.771561172376096e-16
p14Rd5 -0.0
p30Rd5 0.9999999999999996
temp14Rnd4 0.9999999999999999
p15Rd5 5.551115123125783e-17
p31Rd5 5.551115123125783e-16
temp15Rnd4 5.551115123125783e-16
temp4 5.551115123125783e-17
p0Rd6 -1.249000902703301e-16
p16Rd6 0.9999999999999994
temp0Rnd5 1.0
p1Rd6 1.0
p17Rd6 1.0
temp1Rnd5 1.0000000000000004
p2Rd6 1.0000000000000007
p18Rd6 1.0
temp2Rnd5 1.0000000000000007
p3Rd6 5.273559366969494e-16
p19Rd6 3.7470027081099033e-16
temp3Rnd5 5.273559366969494e-16
p4Rd6 2.220446049250313e-16
p20Rd6 9.992007221626409e-16
temp4Rnd5 9.992007221626409e-16
p5Rd6 1.6653345369377348e-16
p21Rd6 0.9999999999999998
temp5Rnd5 1.0
p6Rd6 -9.71445146547012e-16
p22Rd6 -0.0
temp6Rnd5 -1.8214596497756474e-15
p7Rd6 1.000000000000001
p23Rd6 1.0
temp7Rnd5 1.0000000000000007
p8Rd6 -8.326672684688674e-16
p24Rd6 -8.326672684688674e-16
temp8Rnd5 -2.0539125955565396e-15
p9Rd6 1.0000000000000004
p25Rd6 1.000000000000001
temp9Rnd5 1.0000000000000004
p10Rd6 -2.0539125955565396e-15
p26Rd6 -0.0
temp10Rnd5 -7.147060721024445e-16
p11Rd6 -8.881784197001252e-16
p27Rd6 -0.0
temp11Rnd5 -2.7755575615628914e-16
p12Rd6 2.498001805406602e-16
p28Rd6 0.9999999999999994
temp12Rnd5 0.9999999999999996
p13Rd6 1.3322676295501878e-15
p29Rd6 -0.0
temp13Rnd5 7.771561172376096e-16
p14Rd6 0.9999999999999991
p30Rd6 8.881784197001252e-16
temp14Rnd5 1.0
p15Rd6 -4.0245584642661925e-16
p31Rd6 -0.0
temp15Rnd5 -0.0
temp5 -4.0245584642661925e-16
